p cnf 152 826
24 70 0
60 92 101 0
57 113 0
47 52 64 0
48 55 75 0
78 129 0
46 54 0
25 59 86 0
29 67 94 0
84 95 0
74 96 0
39 77 88 0
38 82 89 0
23 36 0
34 90 104 0
53 62 0
30 33 50 114 0
26 28 63 0
66 117 0
73 146 0
43 45 0
49 93 0
20 22 42 0
69 98 99 0
35 91 100 102 0
61 105 107 109 0
51 112 0
27 31 115 0
85 116 118 0
119 120 0
97 121 122 123 0
125 126 127 128 0
79 130 132 133 134 135 0
136 137 0
21 41 71 87 0
37 103 138 0
108 110 139 0
140 151 0
58 65 141 0
68 142 145 0
44 56 147 0
-55 -124 0
-55 -129 0
-54 -55 0
-124 -129 0
-54 -124 0
-54 -129 0
-29 -148 0
-143 -148 0
-95 -148 0
-29 -143 0
-29 -95 0
-95 -143 0
-88 -89 0
-23 -88 0
-23 -89 0
-42 -131 0
-131 -149 0
-31 -131 0
-42 -149 0
-31 -42 0
-31 -149 0
-116 -119 0
-116 -121 0
-21 -116 0
-119 -121 0
-21 -119 0
-21 -121 0
-55 -148 0
-55 -88 0
-55 -131 0
-55 -116 0
-88 -148 0
-131 -148 0
-116 -148 0
-88 -131 0
-88 -116 0
-116 -131 0
-29 -124 0
-89 -124 0
-42 -124 0
-119 -124 0
-29 -89 0
-29 -42 0
-29 -119 0
-42 -89 0
-89 -119 0
-42 -119 0
-129 -143 0
-23 -129 0
-129 -149 0
-121 -129 0
-23 -143 0
-143 -149 0
-121 -143 0
-23 -149 0
-23 -121 0
-121 -149 0
-54 -95 0
-21 -31 0
-60 -70 0
-70 -113 0
-64 -70 0
-60 -113 0
-60 -64 0
-64 -113 0
-75 -150 0
-40 -75 0
-75 -86 0
-40 -150 0
-86 -150 0
-40 -86 0
-77 -82 0
-28 -77 0
-28 -82 0
-106 -152 0
-43 -106 0
-43 -152 0
-125 -130 0
-70 -75 0
-70 -77 0
-70 -106 0
-75 -77 0
-75 -106 0
-77 -106 0
-60 -150 0
-60 -82 0
-60 -152 0
-82 -150 0
-150 -152 0
-82 -152 0
-40 -113 0
-113 -125 0
-40 -125 0
-64 -86 0
-64 -130 0
-86 -130 0
-28 -43 0
-33 -34 0
-69 -80 0
-80 -105 0
-80 -115 0
-69 -105 0
-69 -115 0
-105 -115 0
-76 -118 0
-118 -132 0
-41 -118 0
-76 -132 0
-41 -76 0
-41 -132 0
-37 -58 0
-19 -37 0
-37 -147 0
-19 -58 0
-58 -147 0
-19 -147 0
-80 -118 0
-37 -80 0
-37 -118 0
-34 -69 0
-34 -76 0
-34 -58 0
-69 -76 0
-58 -69 0
-58 -76 0
-33 -105 0
-33 -132 0
-19 -33 0
-105 -132 0
-19 -105 0
-19 -132 0
-41 -115 0
-115 -147 0
-41 -147 0
-17 -46 0
-46 -59 0
-17 -59 0
-62 -90 0
-50 -90 0
-66 -90 0
-50 -62 0
-62 -66 0
-50 -66 0
-16 -144 0
-73 -144 0
-49 -144 0
-16 -73 0
-16 -49 0
-49 -73 0
-14 -98 0
-14 -100 0
-14 -107 0
-98 -100 0
-98 -107 0
-100 -107 0
-13 -122 0
-122 -126 0
-79 -122 0
-13 -126 0
-13 -79 0
-79 -126 0
-14 -122 0
-46 -90 0
-46 -144 0
-46 -98 0
-13 -46 0
-90 -144 0
-90 -98 0
-13 -90 0
-98 -144 0
-13 -144 0
-13 -98 0
-17 -62 0
-16 -17 0
-17 -100 0
-17 -126 0
-16 -62 0
-62 -100 0
-62 -126 0
-16 -100 0
-16 -126 0
-100 -126 0
-50 -59 0
-59 -73 0
-59 -107 0
-59 -79 0
-50 -73 0
-50 -107 0
-50 -79 0
-73 -107 0
-73 -79 0
-79 -107 0
-49 -66 0
-22 -35 0
-108 -142 0
-22 -108 0
-35 -142 0
-101 -111 0
-52 -101 0
-52 -111 0
-67 -84 0
-67 -96 0
-84 -96 0
-12 -133 0
-12 -87 0
-87 -133 0
-11 -141 0
-56 -141 0
-11 -56 0
-67 -101 0
-84 -111 0
-12 -111 0
-111 -141 0
-12 -84 0
-84 -141 0
-12 -141 0
-52 -96 0
-52 -133 0
-11 -52 0
-96 -133 0
-11 -96 0
-11 -133 0
-56 -87 0
-32 -57 0
-32 -47 0
-47 -57 0
-53 -104 0
-104 -114 0
-63 -104 0
-104 -117 0
-53 -114 0
-53 -63 0
-53 -117 0
-63 -114 0
-114 -117 0
-63 -117 0
-10 -18 0
-18 -146 0
-18 -45 0
-18 -93 0
-10 -146 0
-10 -45 0
-10 -93 0
-45 -146 0
-93 -146 0
-45 -93 0
-81 -99 0
-81 -102 0
-81 -109 0
-81 -112 0
-27 -81 0
-99 -102 0
-99 -109 0
-99 -112 0
-27 -99 0
-102 -109 0
-102 -112 0
-27 -102 0
-109 -112 0
-27 -109 0
-27 -112 0
-9 -123 0
-123 -127 0
-123 -134 0
-123 -136 0
-71 -123 0
-9 -127 0
-9 -134 0
-9 -136 0
-9 -71 0
-127 -134 0
-127 -136 0
-71 -127 0
-134 -136 0
-71 -134 0
-71 -136 0
-65 -151 0
-68 -151 0
-8 -151 0
-83 -151 0
-44 -151 0
-65 -68 0
-8 -65 0
-65 -83 0
-44 -65 0
-8 -68 0
-68 -83 0
-44 -68 0
-8 -83 0
-8 -44 0
-44 -83 0
-81 -123 0
-81 -151 0
-123 -151 0
-32 -104 0
-18 -32 0
-32 -99 0
-9 -32 0
-32 -65 0
-18 -104 0
-99 -104 0
-9 -104 0
-65 -104 0
-18 -99 0
-9 -18 0
-18 -65 0
-9 -99 0
-65 -99 0
-9 -65 0
-53 -57 0
-10 -57 0
-57 -102 0
-57 -127 0
-57 -68 0
-10 -53 0
-53 -102 0
-53 -127 0
-53 -68 0
-10 -102 0
-10 -127 0
-10 -68 0
-102 -127 0
-68 -102 0
-68 -127 0
-47 -114 0
-47 -146 0
-47 -109 0
-47 -134 0
-8 -47 0
-114 -146 0
-109 -114 0
-114 -134 0
-8 -114 0
-109 -146 0
-134 -146 0
-8 -146 0
-109 -134 0
-8 -109 0
-8 -134 0
-45 -63 0
-63 -112 0
-63 -136 0
-63 -83 0
-45 -112 0
-45 -136 0
-45 -83 0
-112 -136 0
-83 -112 0
-83 -136 0
-93 -117 0
-27 -117 0
-71 -117 0
-44 -117 0
-27 -93 0
-71 -93 0
-44 -93 0
-27 -71 0
-27 -44 0
-44 -71 0
-24 -92 0
-103 -110 0
-24 -103 0
-92 -110 0
-7 -48 0
-48 -78 0
-6 -48 0
-25 -48 0
-7 -78 0
-6 -7 0
-7 -25 0
-6 -78 0
-25 -78 0
-6 -25 0
-5 -94 0
-4 -5 0
-3 -5 0
-5 -74 0
-4 -94 0
-3 -94 0
-74 -94 0
-3 -4 0
-4 -74 0
-3 -74 0
-38 -39 0
-36 -39 0
-36 -38 0
-2 -20 0
-1 -2 0
-2 -91 0
-2 -61 0
-2 -51 0
-1 -20 0
-20 -91 0
-20 -61 0
-20 -51 0
-1 -91 0
-1 -61 0
-1 -51 0
-61 -91 0
-51 -91 0
-51 -61 0
-85 -120 0
-85 -97 0
-85 -128 0
-85 -135 0
-85 -137 0
-97 -120 0
-120 -128 0
-120 -135 0
-120 -137 0
-97 -128 0
-97 -135 0
-97 -137 0
-128 -135 0
-128 -137 0
-135 -137 0
-138 -139 0
-138 -140 0
-138 -145 0
-15 -138 0
-72 -138 0
-139 -140 0
-139 -145 0
-15 -139 0
-72 -139 0
-140 -145 0
-15 -140 0
-72 -140 0
-15 -145 0
-72 -145 0
-15 -72 0
-5 -48 0
-39 -48 0
-2 -48 0
-48 -85 0
-48 -138 0
-5 -39 0
-2 -5 0
-5 -85 0
-5 -138 0
-2 -39 0
-39 -85 0
-39 -138 0
-2 -85 0
-2 -138 0
-85 -138 0
-7 -94 0
-7 -38 0
-7 -20 0
-7 -120 0
-7 -139 0
-38 -94 0
-20 -94 0
-94 -120 0
-94 -139 0
-20 -38 0
-38 -120 0
-38 -139 0
-20 -120 0
-20 -139 0
-120 -139 0
-4 -78 0
-36 -78 0
-1 -78 0
-78 -97 0
-78 -140 0
-4 -36 0
-1 -4 0
-4 -97 0
-4 -140 0
-1 -36 0
-36 -97 0
-36 -140 0
-1 -97 0
-1 -140 0
-97 -140 0
-3 -6 0
-6 -91 0
-6 -128 0
-6 -145 0
-3 -91 0
-3 -128 0
-3 -145 0
-91 -128 0
-91 -145 0
-128 -145 0
-25 -74 0
-25 -61 0
-25 -135 0
-15 -25 0
-61 -74 0
-74 -135 0
-15 -74 0
-61 -135 0
-15 -61 0
-15 -135 0
-51 -137 0
-51 -72 0
-72 -137 0
-55 -124 0
-55 -129 0
-55 -148 0
-29 -55 0
-55 -143 0
-124 -129 0
-124 -148 0
-29 -124 0
-124 -143 0
-129 -148 0
-29 -129 0
-129 -143 0
-29 -148 0
-143 -148 0
-29 -143 0
-60 -70 0
-70 -75 0
-70 -150 0
-60 -75 0
-60 -150 0
-75 -150 0
-67 -101 0
-24 -92 0
-7 -48 0
-48 -78 0
-5 -48 0
-48 -94 0
-4 -48 0
-7 -78 0
-5 -7 0
-7 -94 0
-4 -7 0
-5 -78 0
-78 -94 0
-4 -78 0
-5 -94 0
-4 -5 0
-4 -94 0
-54 -95 0
-64 -113 0
-40 -113 0
-86 -113 0
-40 -64 0
-64 -86 0
-40 -86 0
-17 -46 0
-46 -59 0
-17 -59 0
-52 -111 0
-84 -111 0
-96 -111 0
-52 -84 0
-52 -96 0
-84 -96 0
-32 -57 0
-32 -47 0
-47 -57 0
-6 -25 0
-3 -6 0
-6 -74 0
-3 -25 0
-25 -74 0
-3 -74 0
-88 -89 0
-23 -88 0
-23 -89 0
-77 -82 0
-77 -106 0
-77 -152 0
-82 -106 0
-82 -152 0
-106 -152 0
-38 -39 0
-36 -39 0
-36 -38 0
-33 -34 0
-62 -90 0
-50 -90 0
-90 -144 0
-16 -90 0
-73 -90 0
-50 -62 0
-62 -144 0
-16 -62 0
-62 -73 0
-50 -144 0
-16 -50 0
-50 -73 0
-16 -144 0
-73 -144 0
-16 -73 0
-53 -104 0
-104 -114 0
-18 -104 0
-10 -104 0
-104 -146 0
-53 -114 0
-18 -53 0
-10 -53 0
-53 -146 0
-18 -114 0
-10 -114 0
-114 -146 0
-10 -18 0
-18 -146 0
-10 -146 0
-28 -43 0
-49 -66 0
-63 -117 0
-45 -63 0
-63 -93 0
-45 -117 0
-93 -117 0
-45 -93 0
-42 -131 0
-131 -149 0
-116 -131 0
-119 -131 0
-121 -131 0
-42 -149 0
-42 -116 0
-42 -119 0
-42 -121 0
-116 -149 0
-119 -149 0
-121 -149 0
-116 -119 0
-116 -121 0
-119 -121 0
-80 -118 0
-37 -80 0
-37 -118 0
-14 -122 0
-22 -108 0
-81 -123 0
-81 -151 0
-123 -151 0
-103 -110 0
-2 -20 0
-1 -2 0
-2 -85 0
-2 -120 0
-2 -97 0
-2 -138 0
-2 -139 0
-2 -140 0
-1 -20 0
-20 -85 0
-20 -120 0
-20 -97 0
-20 -138 0
-20 -139 0
-20 -140 0
-1 -85 0
-1 -120 0
-1 -97 0
-1 -138 0
-1 -139 0
-1 -140 0
-85 -120 0
-85 -97 0
-85 -138 0
-85 -139 0
-85 -140 0
-97 -120 0
-120 -138 0
-120 -139 0
-120 -140 0
-97 -138 0
-97 -139 0
-97 -140 0
-138 -139 0
-138 -140 0
-139 -140 0
-125 -130 0
-69 -105 0
-69 -76 0
-69 -132 0
-58 -69 0
-19 -69 0
-76 -105 0
-105 -132 0
-58 -105 0
-19 -105 0
-76 -132 0
-58 -76 0
-19 -76 0
-58 -132 0
-19 -132 0
-19 -58 0
-98 -100 0
-98 -107 0
-13 -98 0
-98 -126 0
-79 -98 0
-100 -107 0
-13 -100 0
-100 -126 0
-79 -100 0
-13 -107 0
-107 -126 0
-79 -107 0
-13 -126 0
-13 -79 0
-79 -126 0
-35 -142 0
-12 -133 0
-12 -141 0
-11 -12 0
-133 -141 0
-11 -133 0
-11 -141 0
-99 -102 0
-99 -109 0
-9 -99 0
-99 -127 0
-99 -134 0
-65 -99 0
-68 -99 0
-8 -99 0
-102 -109 0
-9 -102 0
-102 -127 0
-102 -134 0
-65 -102 0
-68 -102 0
-8 -102 0
-9 -109 0
-109 -127 0
-109 -134 0
-65 -109 0
-68 -109 0
-8 -109 0
-9 -127 0
-9 -134 0
-9 -65 0
-9 -68 0
-8 -9 0
-127 -134 0
-65 -127 0
-68 -127 0
-8 -127 0
-65 -134 0
-68 -134 0
-8 -134 0
-65 -68 0
-8 -65 0
-8 -68 0
-61 -91 0
-91 -128 0
-91 -135 0
-91 -145 0
-15 -91 0
-61 -128 0
-61 -135 0
-61 -145 0
-15 -61 0
-128 -135 0
-128 -145 0
-15 -128 0
-135 -145 0
-15 -135 0
-15 -145 0
-21 -31 0
-41 -115 0
-115 -147 0
-41 -147 0
-56 -87 0
-27 -112 0
-112 -136 0
-71 -112 0
-83 -112 0
-44 -112 0
-27 -136 0
-27 -71 0
-27 -83 0
-27 -44 0
-71 -136 0
-83 -136 0
-44 -136 0
-71 -83 0
-44 -71 0
-44 -83 0
-51 -137 0
-51 -72 0
-72 -137 0
